(set-info :smt-lib-version 2.6)
(set-logic QF_S)
(set-info :source |
Generated by: Oliver Markgraf, Hongjian Jiang, Daniel Stan, Anthony W. Lin, Philipp Ruemmer
Generated on: 2025-04-08
Application: Using String Solvers to solve RMC problems encoded as CHC over Strings
Target solver: cvc5, OSTRICH, Z3, Z3alpha, Z3-noodler
Time limit: 60.0
Benchmarks are extracted by running HornStr https://arg-git.informatik.uni-kl.de/pub/string-chc-lib on all benchmarks
provided in the repository and gathering the string queries sent to the string solvers.
|)
(set-info :license "https://creativecommons.org/licenses/by/4.0/")
(set-info :category "industrial")
(declare-fun X () String)
(assert (let ((a!1 (re.union (re.union (re.union (str.to_re "e") (str.to_re "a"))
                               (str.to_re "f"))
                     (str.to_re "b"))))
(let ((a!2 (re.union (re.union (re.union a!1 (str.to_re "c")) (str.to_re "Z"))
                     (str.to_re "d"))))
  (str.in_re X (re.* a!2)))))
(assert (let ((a!1 (re.++ (re.* (re.++ (str.to_re "b") (str.to_re "b")))
                  (str.to_re "b")))
      (a!5 (re.++ (re.* (re.++ (str.to_re "b") (str.to_re "b")))
                  (re.++ (str.to_re "b") (str.to_re "e"))))
      (a!9 (re.++ (re.* (re.++ (str.to_re "e") (str.to_re "e")))
                  (str.to_re "e"))))
(let ((a!2 (re.union (str.to_re "b")
                     (re.++ (re.++ (str.to_re "b") (str.to_re "b")) a!1)))
      (a!6 (re.union (re.++ (str.to_re "b") (str.to_re "e"))
                     (re.++ (re.++ (str.to_re "b") (str.to_re "b")) a!5)))
      (a!10 (re.union (str.to_re "e")
                      (re.++ (re.++ (str.to_re "e") (str.to_re "e")) a!9))))
(let ((a!3 (re.++ (re.* (re.++ (str.to_re "b") (str.to_re "b"))) a!2))
      (a!7 (re.++ (re.* (re.++ (str.to_re "b") (str.to_re "b"))) a!6))
      (a!11 (re.++ (re.* (re.++ (str.to_re "e") (str.to_re "e"))) a!10)))
(let ((a!4 (re.union (str.to_re "Z")
                     (re.++ (re.++ (str.to_re "Z") (str.to_re "b")) a!3)))
      (a!8 (re.union (re.++ (str.to_re "Z") (str.to_re "e"))
                     (re.++ (re.++ (str.to_re "Z") (str.to_re "b")) a!7))))
  (str.in_re X (re.union a!4 (re.++ a!8 a!11))))))))
(push 1)
(assert (str.in_re X (str.to_re "")))
(set-info :status unknown)
(check-sat)
(pop 1)
(push 1)
(assert (let ((a!1 (re.union (re.union (re.union (str.to_re "e") (str.to_re "a"))
                               (str.to_re "f"))
                     (str.to_re "b"))))
(let ((a!2 (re.union (re.union (re.union a!1 (str.to_re "c")) (str.to_re "Z"))
                     (str.to_re "d"))))
  (str.in_re X a!2))))
(set-info :status unknown)
(check-sat)
(assert (distinct X "Z"))
(set-info :status unknown)
(check-sat)
(pop 1)
(push 1)
(assert (let ((a!1 (re.union (re.union (re.union (str.to_re "e") (str.to_re "a"))
                               (str.to_re "f"))
                     (str.to_re "b"))))
(let ((a!2 (re.union (re.union (re.union a!1 (str.to_re "c")) (str.to_re "Z"))
                     (str.to_re "d"))))
  (str.in_re X (re.++ (re.++ a!2 a!2) a!2)))))
(set-info :status unknown)
(check-sat)
(assert (distinct X "Zee"))
(set-info :status unknown)
(check-sat)
(assert (distinct X "Zbb"))
(set-info :status unknown)
(check-sat)
(pop 1)
(push 1)
(assert (let ((a!1 (re.union (re.union (re.union (str.to_re "e") (str.to_re "a"))
                               (str.to_re "f"))
                     (str.to_re "b"))))
(let ((a!2 (re.union (re.union (re.union a!1 (str.to_re "c")) (str.to_re "Z"))
                     (str.to_re "d"))))
  (str.in_re X (re.++ a!2 a!2)))))
(set-info :status unknown)
(check-sat)
(pop 1)
(push 1)
(assert (let ((a!1 (re.union (re.union (re.union (str.to_re "e") (str.to_re "a"))
                               (str.to_re "f"))
                     (str.to_re "b"))))
(let ((a!2 (re.union (re.union (re.union a!1 (str.to_re "c")) (str.to_re "Z"))
                     (str.to_re "d"))))
  (str.in_re X (re.++ (re.++ (re.++ a!2 a!2) a!2) a!2)))))
(set-info :status unknown)
(check-sat)
(pop 1)
(push 1)
(assert (let ((a!1 (re.union (re.union (re.union (str.to_re "e") (str.to_re "a"))
                               (str.to_re "f"))
                     (str.to_re "b"))))
(let ((a!2 (re.union (re.union (re.union a!1 (str.to_re "c")) (str.to_re "Z"))
                     (str.to_re "d"))))
(let ((a!3 (re.++ (re.++ (re.++ (re.++ a!2 a!2) a!2) a!2) a!2)))
  (str.in_re X a!3)))))
(set-info :status unknown)
(check-sat)
(assert (distinct X "Zbbee"))
(set-info :status unknown)
(check-sat)
(assert (distinct X "Zeeee"))
(set-info :status unknown)
(check-sat)
(assert (distinct X "Zbbbb"))
(set-info :status unknown)
(check-sat)
(pop 1)
(push 1)
(assert (let ((a!1 (re.union (re.union (re.union (str.to_re "e") (str.to_re "a"))
                               (str.to_re "f"))
                     (str.to_re "b"))))
(let ((a!2 (re.union (re.union (re.union a!1 (str.to_re "c")) (str.to_re "Z"))
                     (str.to_re "d"))))
(let ((a!3 (re.++ (re.++ (re.++ (re.++ a!2 a!2) a!2) a!2) a!2)))
  (str.in_re X (re.++ a!3 a!2))))))
(set-info :status unknown)
(check-sat)
(pop 1)
(exit)
